(set-logic ALL)
(declare-const k Int)
(declare-fun s () (_ BitVec k))
(declare-fun t () (_ BitVec k))
(assert (not (distinct (distinct s (bvudiv s (bvlshr (_ bv1 k) t))) (bvult s (bvnot (bvudiv (_ bv0 k) t))))))
(check-sat)
